NAME: prueba-n3-k1
COMMENT: Generado por Cristian Berner
TYPE: CVRP
DIMENSION: 3
EDGE_WEIGHT_TYPE: EUC_2D
CAPACITY: 5
NODE_COORD_SECTION
0 50.8427501 4.3515499
20 1.5 -2
40 -2.5 3
DEMAND_SECTION
0 0
20 2
40 3
DEPOT_SECTION
0
-1
EOF
